
Gurobi 6.5.2 (linux64) logging started Wed Mar 15 12:58:28 2017


Gurobi 6.5.2 (linux64) logging started Wed Mar 15 12:58:28 2017

Optimize a model with 401 rows, 6170 columns and 13595 nonzeros
Coefficient statistics:
  Matrix range    [1e+00, 2e+00]
  Objective range [1e+00, 1e+02]
  Bounds range    [1e+00, 1e+00]
  RHS range       [1e+00, 1e+00]
Presolve removed 92 rows and 4 columns
Presolve time: 0.02s
Presolved: 309 rows, 6166 columns, 12878 nonzeros
Variable types: 0 continuous, 6166 integer (6166 binary)

Root relaxation: objective 1.322750e+03, 226 iterations, 0.00 seconds

    Nodes    |    Current Node    |     Objective Bounds      |     Work
 Expl Unexpl |  Obj  Depth IntInf | Incumbent    BestBd   Gap | It/Node Time

     0     0 1322.75000    0   78          - 1322.75000      -     -    0s
     0     0 1422.46726    0  110          - 1422.46726      -     -    0s
     0     0 1444.16427    0  103          - 1444.16427      -     -    0s
     0     0 1444.54312    0  117          - 1444.54312      -     -    0s
     0     0 1454.00084    0  131          - 1454.00084      -     -    0s
     0     0 1456.05996    0  146          - 1456.05996      -     -    0s
     0     0 1459.45008    0  148          - 1459.45008      -     -    0s
     0     0 1459.80463    0  161          - 1459.80463      -     -    0s
     0     0 1460.77667    0  162          - 1460.77667      -     -    0s
     0     0 1460.77667    0  161          - 1460.77667      -     -    0s
     0     2 1460.77667    0  161          - 1460.77667      -     -    1s
H 3586  3230                    5095.0000000 1463.15833  71.3%   6.7    4s
  3587  3230 1479.82500   24   93 5095.00000 1463.15833  71.3%   6.7    5s

Cutting planes:
  Gomory: 75
  Cover: 191
  MIR: 2
  Flow cover: 21
  Zero half: 23
  Lazy constraints: 21

Explored 3595 nodes (25707 simplex iterations) in 10.18 seconds
Thread count was 8 (of 8 available processors)

Time limit reached
Best objective 5.095000000000e+03, best bound 1.485000000000e+03, gap 70.8538%
